results_rootrelaxation/bin018_050_014.srr.sol
solution status: optimal solution found
objective value:                                    0
_var1254_                          0.0998208360373979 	(obj:0)
_var1353_                          0.0659649473309121 	(obj:0)
_var2122_                           0.330927107579039 	(obj:0)
_var2677_                            0.26526196492162 	(obj:0)
_var2684_                           0.062244685888212 	(obj:0)
_var2690_                           0.225497338162443 	(obj:0)
_var2691_                           0.125355122870421 	(obj:0)
_var2692_                           0.124425420599819 	(obj:0)
_var2695_                          0.0289196128948118 	(obj:0)
_var2697_                           0.106996639719736 	(obj:0)
_var2698_                           0.232720981266333 	(obj:0)
_var2707_                           0.216192817953654 	(obj:0)
_var2710_                           0.177758775657137 	(obj:0)
_var2738_                           0.210852372207906 	(obj:0)
_var2745_                           0.184955747937626 	(obj:0)
_var2752_                           0.149202290134476 	(obj:0)
_var2753_                           0.170065387499045 	(obj:0)
_var2754_                           0.218410356727573 	(obj:0)
_var2755_                          0.0878947622502056 	(obj:0)
_var2763_                           0.172734656947424 	(obj:0)
_var2765_                           0.210120633344815 	(obj:0)
_var2771_                           0.141468136183426 	(obj:0)
_var2778_                           0.347371612534925 	(obj:0)
_var2779_                            0.11251275263438 	(obj:0)
_var2780_                           0.202064488756793 	(obj:0)
_var2784_                           0.106042175448228 	(obj:0)
_var2786_                         0.00218225956531339 	(obj:0)
_var2788_                           0.202752803322266 	(obj:0)
_var2789_                          0.0355684696772177 	(obj:0)
_var2790_                          0.0943649195670803 	(obj:0)
_var2791_                           0.284226482875894 	(obj:0)
_var2793_                           0.131746259123459 	(obj:0)
_var2794_                           0.132281594872899 	(obj:0)
_var2799_                           0.160780543588359 	(obj:0)
_var2801_                           0.194775128881294 	(obj:0)
_var2804_                          0.0737342534042816 	(obj:0)
_var2805_                           0.240450729337311 	(obj:0)
_var2808_                           0.220531659988202 	(obj:0)
_var2811_                           0.195110990492721 	(obj:0)
_var2813_                          0.0079527676972504 	(obj:0)
_var2814_                          0.0857988312888531 	(obj:0)
_var2815_                           0.148889596342196 	(obj:0)
_var2816_                           0.139137216621682 	(obj:0)
_var2818_                         0.00861190693618844 	(obj:0)
_var2820_                          0.0714763079358709 	(obj:0)
_var2823_                           0.275486643201324 	(obj:0)
_var2830_                           0.103541164238754 	(obj:0)
_var2831_                          0.0744696369587452 	(obj:0)
_var2832_                          0.0328454476245818 	(obj:0)
_var2833_                           0.296493777258144 	(obj:0)
_var2834_                           0.125836212861305 	(obj:0)
_var2836_                          0.0141195892546001 	(obj:0)
_var2837_                          0.0978485365429804 	(obj:0)
_var2842_                           0.091451013720676 	(obj:0)
_var2843_                           0.109413748103994 	(obj:0)
_var2845_                           0.116228159943969 	(obj:0)
_var2846_                          0.0421124632252276 	(obj:0)
_var2855_                           0.387152620264164 	(obj:0)
_var2859_                          0.0383174394569718 	(obj:0)
_var2861_                          0.0274534611608954 	(obj:0)
_var2865_                           0.073813660422059 	(obj:0)
_var2866_                           0.399385876157096 	(obj:0)
_var2868_                           0.117787251345782 	(obj:0)
_var2879_                           0.147404432156181 	(obj:0)
_var2881_                           0.142471458896787 	(obj:0)
_var2883_                          0.0499882493430213 	(obj:0)
_var2885_                          0.0895693177004314 	(obj:0)
_var2886_                          0.0381431770168915 	(obj:0)
_var2890_                          0.0613321493193774 	(obj:0)
_var2891_                         0.000307996493273538 	(obj:0)
_var2892_                           0.128744323718896 	(obj:0)
_var2894_                           0.206749716596824 	(obj:0)
_var2895_                           0.214870968602919 	(obj:0)
_var2897_                           0.142328171635917 	(obj:0)
_var2901_                           0.075358166445408 	(obj:0)
_var2902_                           0.126520967483778 	(obj:0)
_var2903_                           0.155741890088943 	(obj:0)
_var2904_                           0.165917123086459 	(obj:0)
_var2905_                           0.253311746184022 	(obj:0)
_var2906_                          0.0542912681234561 	(obj:0)
_var2908_                           0.220191710581089 	(obj:0)
_var2912_                           0.193963134958928 	(obj:0)
_var2913_                          0.0239237097853585 	(obj:0)
_var2917_                          0.0632032596170225 	(obj:0)
_var2920_                           0.183465375804894 	(obj:0)
_var2923_                           0.284161899457804 	(obj:0)
_var2924_                          0.0430750269848934 	(obj:0)
_var2926_                           0.285610453293139 	(obj:0)
_var2929_                           0.122521865393174 	(obj:0)
_var2930_                           0.134556755702163 	(obj:0)
_var2931_                          0.0549031580665561 	(obj:0)
_var2932_                           0.125132174354509 	(obj:0)
_var2933_                           0.220154427433288 	(obj:0)
_var2935_                          0.0110177199609749 	(obj:0)
_var2936_                          0.0686585106610758 	(obj:0)
_var2937_                          0.0355239021520189 	(obj:0)
_var2938_                           0.111445219963717 	(obj:0)
_var2941_                          0.0318440868643432 	(obj:0)
_var2943_                           0.319617919760815 	(obj:0)
_var2944_                           0.212242533046393 	(obj:0)
_var2945_                         0.000594036036510836 	(obj:0)
_var2946_                           0.063325267300676 	(obj:0)
_var2949_                          0.0245330305569282 	(obj:0)
_var2950_                          0.0673844664392052 	(obj:0)
_var2953_                          0.0452730696792069 	(obj:0)
_var2954_                           0.114351961998966 	(obj:0)
_var2955_                           0.140107214208893 	(obj:0)
_var2958_                          0.0169926356471212 	(obj:0)
_var2959_                            0.15628898671787 	(obj:0)
_var2960_                           0.093596107361247 	(obj:0)
_var2961_                           0.153230870911863 	(obj:0)
_var2964_                         0.00804675221400589 	(obj:0)
_var2965_                          0.0239415403968617 	(obj:0)
_var2966_                          0.0120220549975424 	(obj:0)
_var2968_                          0.0444259691982647 	(obj:0)
_var2969_                         9.53030608799033e-05 	(obj:0)
_var2970_                           0.186550090052132 	(obj:0)
_var2972_                           0.211114203343565 	(obj:0)
_var2973_                           0.189702310427089 	(obj:0)
_var2975_                          0.0417832332580991 	(obj:0)
_var2977_                          0.0355331638476266 	(obj:0)
_var2979_                          0.0667215693459455 	(obj:0)
_var2982_                           0.110308139829376 	(obj:0)
_var2983_                         0.00680692083258444 	(obj:0)
_var2984_                          0.0333206117915615 	(obj:0)
_var2985_                           0.164283490320532 	(obj:0)
_var2988_                         0.00270083728660544 	(obj:0)
_var2989_                          0.0212068579604136 	(obj:0)
_var2990_                           0.114975923614976 	(obj:0)
_var2993_                         0.00433431613954709 	(obj:0)
_var2994_                         0.000812085849297892 	(obj:0)
_var2996_                          0.0131138587354841 	(obj:0)
_var2997_                          0.0659731775009786 	(obj:0)
_var2998_                          0.0938656510300097 	(obj:0)
_var2999_                           0.101276138654001 	(obj:0)
_var3001_                          0.0413396070672595 	(obj:0)
_var3002_                          0.0310131640663718 	(obj:0)
_var3005_                          0.0133259574564267 	(obj:0)
_var3006_                         0.00516268460331533 	(obj:0)
_var3007_                          0.0590559397070638 	(obj:0)
_var3009_                         0.00189084235558989 	(obj:0)
_var3010_                         0.00907474273156536 	(obj:0)
_var3011_                          0.0395919557446653 	(obj:0)
_var3013_                           0.149928566644432 	(obj:0)
_var3014_                          0.0547907430885512 	(obj:0)
_var3017_                          0.0148099629320161 	(obj:0)
_var3021_                         0.00708359894995547 	(obj:0)
_var3022_                          0.0474968508921468 	(obj:0)
_var3025_                          0.0305945712512493 	(obj:0)
_var3028_                         0.00212907085723308 	(obj:0)
_var3030_                           0.011788348420714 	(obj:0)
_var3032_                          0.0241565332028743 	(obj:0)
