results_rootrelaxation/bin018_050_014.srr.log
SCIP version 8.0.3.5 [precision: 8 byte] [memory: block] [mode: optimized] [LP solver: Soplex 6.0.1.3] [GitHash: 438792519e]
Copyright (c) 2002-2023 Zuse Institute Berlin (ZIB)

External libraries: 
  Readline 8.1         GNU library for command line editing (gnu.org/s/readline)
  Soplex 6.0.1.3       Linear Programming Solver developed at Zuse Institute Berlin (soplex.zib.de) [GitHash: 713be0fe]
  CppAD 20180000.0     Algorithmic Differentiation of C++ algorithms developed by B. Bell (github.com/coin-or/CppAD)
  ZLIB 1.2.11          General purpose compression library by J. Gailly and M. Adler (zlib.net)
  bliss 0.77           Computing Graph Automorphism Groups by T. Junttila and P. Kaski (www.tcs.hut.fi/Software/bliss/)

user parameter file <scip.set> not found - using default parameters

srr/relaxation = TRUE

read problem <instances/bin018_050_014.srr>
============

Original problem: 
original problem has 0 variables (0 bin, 0 int, 0 impl, 0 cont) and 170 constraints

presolving:
presolving (1 rounds: 1 fast, 1 medium, 1 exhaustive):
 0 deleted vars, 0 deleted constraints, 0 added constraints, 0 tightened bounds, 0 added holes, 0 changed sides, 0 changed coefficients
 0 implications, 0 cliques
presolved problem has 0 variables (0 bin, 0 int, 0 impl, 0 cont) and 170 constraints
    170 constraints of type <linear>
Presolving Time: 0.00

 time | node  | left  |LP iter|LP it/n|mem/heur|mdpt |vars |cons |rows |cuts |sepa|confs|strbr|  dualbound   | primalbound  |  gap   | compl. 
  0.0s|     1 |     0 |     1 |     - |   922k |   0 |   1 | 170 | 170 |   0 |  0 |   0 |   0 |      --      |      --      |    Inf | unknown
  0.2s|     1 |     0 |  1448 |     - |  7121k |   0 |1606 | 170 | 170 |   0 |  0 |   0 |   0 |      --      |      --      |    Inf | unknown
r 0.9s|     1 |     0 |  8008 |     - |simplero|   0 |2677 | 170 | 170 |   0 |  0 |   0 |   0 |      --      | 3.252779e+01 |    Inf | unknown
r 0.9s|     1 |     0 |  8119 |     - |simplero|   0 |2694 | 170 | 170 |   0 |  0 |   0 |   0 |      --      | 3.033591e+01 |    Inf | unknown
r 0.9s|     1 |     0 |  8200 |     - |simplero|   0 |2711 | 170 | 170 |   0 |  0 |   0 |   0 |      --      | 2.895514e+01 |    Inf | unknown
r 1.0s|     1 |     0 |  8340 |     - |simplero|   0 |2728 | 170 | 170 |   0 |  0 |   0 |   0 |      --      | 2.681374e+01 |    Inf | unknown
r 1.0s|     1 |     0 |  8482 |     - |simplero|   0 |2745 | 170 | 170 |   0 |  0 |   0 |   0 |      --      | 2.471127e+01 |    Inf | unknown
r 1.0s|     1 |     0 |  8631 |     - |simplero|   0 |2762 | 170 | 170 |   0 |  0 |   0 |   0 |      --      | 2.321347e+01 |    Inf | unknown
r 1.0s|     1 |     0 |  8838 |     - |simplero|   0 |2779 | 170 | 170 |   0 |  0 |   0 |   0 |      --      | 2.039103e+01 |    Inf | unknown
r 1.1s|     1 |     0 |  8963 |     - |simplero|   0 |2796 | 170 | 170 |   0 |  0 |   0 |   0 |      --      | 1.905456e+01 |    Inf | unknown
r 1.1s|     1 |     0 |  9045 |     - |simplero|   0 |2796 | 170 | 170 |   0 |  0 |   0 |   0 |      --      | 1.821942e+01 |    Inf | unknown
r 1.1s|     1 |     0 |  9074 |     - |simplero|   0 |2796 | 170 | 170 |   0 |  0 |   0 |   0 |      --      | 1.818542e+01 |    Inf | unknown
r 1.1s|     1 |     0 |  9081 |     - |simplero|   0 |2796 | 170 | 170 |   0 |  0 |   0 |   0 |      --      | 1.818462e+01 |    Inf | unknown
r 1.1s|     1 |     0 |  9217 |     - |simplero|   0 |2813 | 170 | 170 |   0 |  0 |   0 |   0 |      --      | 1.609299e+01 |    Inf | unknown
r 1.1s|     1 |     0 |  9255 |     - |simplero|   0 |2813 | 170 | 170 |   0 |  0 |   0 |   0 |      --      | 1.600173e+01 |    Inf | unknown
 time | node  | left  |LP iter|LP it/n|mem/heur|mdpt |vars |cons |rows |cuts |sepa|confs|strbr|  dualbound   | primalbound  |  gap   | compl. 
r 1.1s|     1 |     0 |  9258 |     - |simplero|   0 |2813 | 170 | 170 |   0 |  0 |   0 |   0 |      --      | 1.600139e+01 |    Inf | unknown
r 1.1s|     1 |     0 |  9319 |     - |simplero|   0 |2830 | 170 | 170 |   0 |  0 |   0 |   0 |      --      | 1.511451e+01 |    Inf | unknown
r 1.1s|     1 |     0 |  9397 |     - |simplero|   0 |2830 | 170 | 170 |   0 |  0 |   0 |   0 |      --      | 1.448947e+01 |    Inf | unknown
r 1.1s|     1 |     0 |  9438 |     - |simplero|   0 |2830 | 170 | 170 |   0 |  0 |   0 |   0 |      --      | 1.440150e+01 |    Inf | unknown
r 1.2s|     1 |     0 |  9644 |     - |simplero|   0 |2847 | 170 | 170 |   0 |  0 |   0 |   0 |      --      | 1.197624e+01 |    Inf | unknown
r 1.2s|     1 |     0 |  9679 |     - |simplero|   0 |2847 | 170 | 170 |   0 |  0 |   0 |   0 |      --      | 1.183838e+01 |    Inf | unknown
r 1.2s|     1 |     0 |  9682 |     - |simplero|   0 |2847 | 170 | 170 |   0 |  0 |   0 |   0 |      --      | 1.183830e+01 |    Inf | unknown
r 1.2s|     1 |     0 |  9683 |     - |simplero|   0 |2847 | 170 | 170 |   0 |  0 |   0 |   0 |      --      | 1.183830e+01 |    Inf | unknown
r 1.2s|     1 |     0 |  9846 |     - |simplero|   0 |2864 | 170 | 170 |   0 |  0 |   0 |   0 |      --      | 1.021895e+01 |    Inf | unknown
r 1.2s|     1 |     0 |  9920 |     - |simplero|   0 |2864 | 170 | 170 |   0 |  0 |   0 |   0 |      --      | 1.001088e+01 |    Inf | unknown
r 1.2s|     1 |     0 |  9934 |     - |simplero|   0 |2864 | 170 | 170 |   0 |  0 |   0 |   0 |      --      | 9.998606e+00 |    Inf | unknown
r 1.2s|     1 |     0 |  9937 |     - |simplero|   0 |2864 | 170 | 170 |   0 |  0 |   0 |   0 |      --      | 9.998482e+00 |    Inf | unknown
r 1.2s|     1 |     0 | 10046 |     - |simplero|   0 |2881 | 170 | 170 |   0 |  0 |   0 |   0 |      --      | 9.113773e+00 |    Inf | unknown
r 1.2s|     1 |     0 | 10108 |     - |simplero|   0 |2881 | 170 | 170 |   0 |  0 |   0 |   0 |      --      | 8.832192e+00 |    Inf | unknown
r 1.2s|     1 |     0 | 10145 |     - |simplero|   0 |2881 | 170 | 170 |   0 |  0 |   0 |   0 |      --      | 8.715325e+00 |    Inf | unknown
 time | node  | left  |LP iter|LP it/n|mem/heur|mdpt |vars |cons |rows |cuts |sepa|confs|strbr|  dualbound   | primalbound  |  gap   | compl. 
r 1.2s|     1 |     0 | 10159 |     - |simplero|   0 |2881 | 170 | 170 |   0 |  0 |   0 |   0 |      --      | 8.709704e+00 |    Inf | unknown
r 1.3s|     1 |     0 | 10315 |     - |simplero|   0 |2898 | 170 | 170 |   0 |  0 |   0 |   0 |      --      | 6.941312e+00 |    Inf | unknown
r 1.3s|     1 |     0 | 10362 |     - |simplero|   0 |2898 | 170 | 170 |   0 |  0 |   0 |   0 |      --      | 6.839740e+00 |    Inf | unknown
r 1.3s|     1 |     0 | 10376 |     - |simplero|   0 |2898 | 170 | 170 |   0 |  0 |   0 |   0 |      --      | 6.823351e+00 |    Inf | unknown
r 1.3s|     1 |     0 | 10381 |     - |simplero|   0 |2898 | 170 | 170 |   0 |  0 |   0 |   0 |      --      | 6.821396e+00 |    Inf | unknown
r 1.3s|     1 |     0 | 10509 |     - |simplero|   0 |2915 | 170 | 170 |   0 |  0 |   0 |   0 |      --      | 5.845223e+00 |    Inf | unknown
r 1.3s|     1 |     0 | 10566 |     - |simplero|   0 |2915 | 170 | 170 |   0 |  0 |   0 |   0 |      --      | 5.629847e+00 |    Inf | unknown
r 1.3s|     1 |     0 | 10576 |     - |simplero|   0 |2915 | 170 | 170 |   0 |  0 |   0 |   0 |      --      | 5.620915e+00 |    Inf | unknown
  1.3s|     1 |     0 | 10589 |     - |    14M |   0 |2915 | 170 | 170 |   0 |  0 |   0 |   0 |      --      | 5.620915e+00 |    Inf | unknown
r 1.3s|     1 |     0 | 10589 |     - |simplero|   0 |2915 | 170 | 170 |   0 |  0 |   0 |   0 |      --      | 5.612903e+00 |    Inf | unknown
r 1.3s|     1 |     0 | 10689 |     - |simplero|   0 |2932 | 170 | 170 |   0 |  0 |   0 |   0 |      --      | 5.069882e+00 |    Inf | unknown
r 1.3s|     1 |     0 | 10782 |     - |simplero|   0 |2932 | 170 | 170 |   0 |  0 |   0 |   0 |      --      | 4.664001e+00 |    Inf | unknown
r 1.3s|     1 |     0 | 10806 |     - |simplero|   0 |2932 | 170 | 170 |   0 |  0 |   0 |   0 |      --      | 4.635973e+00 |    Inf | unknown
r 1.4s|     1 |     0 | 10964 |     - |simplero|   0 |2949 | 170 | 170 |   0 |  0 |   0 |   0 |      --      | 3.116201e+00 |    Inf | unknown
r 1.4s|     1 |     0 | 11048 |     - |simplero|   0 |2949 | 170 | 170 |   0 |  0 |   0 |   0 |      --      | 2.756907e+00 |    Inf | unknown
 time | node  | left  |LP iter|LP it/n|mem/heur|mdpt |vars |cons |rows |cuts |sepa|confs|strbr|  dualbound   | primalbound  |  gap   | compl. 
r 1.4s|     1 |     0 | 11056 |     - |simplero|   0 |2949 | 170 | 170 |   0 |  0 |   0 |   0 |      --      | 2.745454e+00 |    Inf | unknown
r 1.4s|     1 |     0 | 11057 |     - |simplero|   0 |2949 | 170 | 170 |   0 |  0 |   0 |   0 |      --      | 2.745429e+00 |    Inf | unknown
r 1.4s|     1 |     0 | 11147 |     - |simplero|   0 |2966 | 170 | 170 |   0 |  0 |   0 |   0 |      --      | 2.133579e+00 |    Inf | unknown
r 1.4s|     1 |     0 | 11224 |     - |simplero|   0 |2966 | 170 | 170 |   0 |  0 |   0 |   0 |      --      | 1.907723e+00 |    Inf | unknown
r 1.4s|     1 |     0 | 11240 |     - |simplero|   0 |2966 | 170 | 170 |   0 |  0 |   0 |   0 |      --      | 1.893369e+00 |    Inf | unknown
r 1.4s|     1 |     0 | 11344 |     - |simplero|   0 |2983 | 170 | 170 |   0 |  0 |   0 |   0 |      --      | 1.243637e+00 |    Inf | unknown
r 1.4s|     1 |     0 | 11371 |     - |simplero|   0 |2983 | 170 | 170 |   0 |  0 |   0 |   0 |      --      | 1.156646e+00 |    Inf | unknown
r 1.4s|     1 |     0 | 11433 |     - |simplero|   0 |3000 | 170 | 170 |   0 |  0 |   0 |   0 |      --      | 6.680021e-01 |    Inf | unknown
r 1.4s|     1 |     0 | 11468 |     - |simplero|   0 |3000 | 170 | 170 |   0 |  0 |   0 |   0 |      --      | 6.192104e-01 |    Inf | unknown
r 1.4s|     1 |     0 | 11547 |     - |simplero|   0 |3017 | 170 | 170 |   0 |  0 |   0 |   0 |      --      | 1.847663e-01 |    Inf | unknown
r 1.5s|     1 |     0 | 11575 |     - |simplero|   0 |3034 | 170 | 170 |   0 |  0 |   0 |   0 |      --      | 0.000000e+00 |    Inf | unknown
  1.5s|     1 |     0 | 11575 |     - |    15M |   0 |3034 | 170 | 170 |   0 |  0 |   0 |   0 | 0.000000e+00 | 0.000000e+00 |   0.00%| unknown
  1.5s|     1 |     0 | 11575 |     - |    15M |   0 |3034 | 170 | 170 |   0 |  0 |   0 |   0 | 0.000000e+00 | 0.000000e+00 |   0.00%| unknown

SCIP Status        : problem is solved [optimal solution found]
Solving Time (sec) : 1.46
Solving Nodes      : 1
Primal Bound       : +0.00000000000000e+00 (53 solutions)
Dual Bound         : +0.00000000000000e+00
Gap                : 0.00 %

written transformed problem to file <results_rootrelaxation/bin018_050_014.srr.lp>
written transformed problem to file <results_rootrelaxation/bin018_050_014.srr.cip>

written solution information to file <results_rootrelaxation/bin018_050_014.srr.sol>



